1798
1901
9565
2003
7037
2738
8525
7840
3571
4853
2730
8466
6096
10048
6023
1363
4460
941
9060
6690
8607
6538
7280
4599
5358
9254
1566
801
5413
9354
8216
1491
4435
1219
2757
4279
1700
8176
8116
3707
6886
8447
5837
5662
1067
3580
5960
2698
8643
10138
